output/lp/model_MTZL_ulysses16.lp
\ENCODING=ISO-8859-1
\Problem name: TSP

Minimize
 obj1: x(1,1) + 509 x(1,2) + 501 x(1,3) + 312 x(1,4) + 1019 x(1,5) + 736 x(1,6)
       + 656 x(1,7) + 60 x(1,8) + 1039 x(1,9) + 726 x(1,10) + 2314 x(1,11)
       + 479 x(1,12) + 448 x(1,13) + 479 x(1,14) + 619 x(1,15) + 150 x(1,16)
       + 509 x(2,1) + x(2,2) + 126 x(2,3) + 474 x(2,4) + 1526 x(2,5)
       + 1226 x(2,6) + 1133 x(2,7) + 532 x(2,8) + 1449 x(2,9) + 1122 x(2,10)
       + 2789 x(2,11) + 958 x(2,12) + 941 x(2,13) + 978 x(2,14) + 1127 x(2,15)
       + 542 x(2,16) + 501 x(3,1) + 126 x(3,2) + x(3,3) + 541 x(3,4)
       + 1516 x(3,5) + 1184 x(3,6) + 1084 x(3,7) + 536 x(3,8) + 1371 x(3,9)
       + 1045 x(3,10) + 2728 x(3,11) + 913 x(3,12) + 904 x(3,13) + 946 x(3,14)
       + 1115 x(3,15) + 499 x(3,16) + 312 x(4,1) + 474 x(4,2) + 541 x(4,3)
       + x(4,4) + 1157 x(4,5) + 980 x(4,6) + 919 x(4,7) + 271 x(4,8)
       + 1333 x(4,9) + 1029 x(4,10) + 2553 x(4,11) + 751 x(4,12) + 704 x(4,13)
       + 720 x(4,14) + 783 x(4,15) + 455 x(4,16) + 1019 x(5,1) + 1526 x(5,2)
       + 1516 x(5,3) + 1157 x(5,4) + x(5,5) + 478 x(5,6) + 583 x(5,7)
       + 996 x(5,8) + 858 x(5,9) + 855 x(5,10) + 1504 x(5,11) + 677 x(5,12)
       + 651 x(5,13) + 600 x(5,14) + 401 x(5,15) + 1033 x(5,16) + 736 x(6,1)
       + 1226 x(6,2) + 1184 x(6,3) + 980 x(6,4) + 478 x(6,5) + x(6,6)
       + 115 x(6,7) + 740 x(6,8) + 470 x(6,9) + 379 x(6,10) + 1581 x(6,11)
       + 271 x(6,12) + 289 x(6,13) + 261 x(6,14) + 308 x(6,15) + 687 x(6,16)
       + 656 x(7,1) + 1133 x(7,2) + 1084 x(7,3) + 919 x(7,4) + 583 x(7,5)
       + 115 x(7,6) + x(7,7) + 667 x(7,8) + 455 x(7,9) + 288 x(7,10)
       + 1661 x(7,11) + 177 x(7,12) + 216 x(7,13) + 207 x(7,14) + 343 x(7,15)
       + 592 x(7,16) + 60 x(8,1) + 532 x(8,2) + 536 x(8,3) + 271 x(8,4)
       + 996 x(8,5) + 740 x(8,6) + 667 x(8,7) + x(8,8) + 1066 x(8,9)
       + 759 x(8,10) + 2320 x(8,11) + 493 x(8,12) + 454 x(8,13) + 479 x(8,14)
       + 598 x(8,15) + 206 x(8,16) + 1039 x(9,1) + 1449 x(9,2) + 1371 x(9,3)
       + 1333 x(9,4) + 858 x(9,5) + 470 x(9,6) + 455 x(9,7) + 1066 x(9,8)
       + x(9,9) + 328 x(9,10) + 1387 x(9,11) + 591 x(9,12) + 650 x(9,13)
       + 656 x(9,14) + 776 x(9,15) + 933 x(9,16) + 726 x(10,1) + 1122 x(10,2)
       + 1045 x(10,3) + 1029 x(10,4) + 855 x(10,5) + 379 x(10,6) + 288 x(10,7)
       + 759 x(10,8) + 328 x(10,9) + x(10,10) + 1697 x(10,11) + 333 x(10,12)
       + 400 x(10,13) + 427 x(10,14) + 622 x(10,15) + 610 x(10,16)
       + 2314 x(11,1) + 2789 x(11,2) + 2728 x(11,3) + 2553 x(11,4)
       + 1504 x(11,5) + 1581 x(11,6) + 1661 x(11,7) + 2320 x(11,8)
       + 1387 x(11,9) + 1697 x(11,10) + x(11,11) + 1838 x(11,12)
       + 1868 x(11,13) + 1841 x(11,14) + 1789 x(11,15) + 2248 x(11,16)
       + 479 x(12,1) + 958 x(12,2) + 913 x(12,3) + 751 x(12,4) + 677 x(12,5)
       + 271 x(12,6) + 177 x(12,7) + 493 x(12,8) + 591 x(12,9) + 333 x(12,10)
       + 1838 x(12,11) + x(12,12) + 68 x(12,13) + 105 x(12,14) + 336 x(12,15)
       + 417 x(12,16) + 448 x(13,1) + 941 x(13,2) + 904 x(13,3) + 704 x(13,4)
       + 651 x(13,5) + 289 x(13,6) + 216 x(13,7) + 454 x(13,8) + 650 x(13,9)
       + 400 x(13,10) + 1868 x(13,11) + 68 x(13,12) + x(13,13) + 52 x(13,14)
       + 287 x(13,15) + 406 x(13,16) + 479 x(14,1) + 978 x(14,2) + 946 x(14,3)
       + 720 x(14,4) + 600 x(14,5) + 261 x(14,6) + 207 x(14,7) + 479 x(14,8)
       + 656 x(14,9) + 427 x(14,10) + 1841 x(14,11) + 105 x(14,12)
       + 52 x(14,13) + x(14,14) + 237 x(14,15) + 449 x(14,16) + 619 x(15,1)
       + 1127 x(15,2) + 1115 x(15,3) + 783 x(15,4) + 401 x(15,5) + 308 x(15,6)
       + 343 x(15,7) + 598 x(15,8) + 776 x(15,9) + 622 x(15,10) + 1789 x(15,11)
       + 336 x(15,12) + 287 x(15,13) + 237 x(15,14) + x(15,15) + 636 x(15,16)
       + 150 x(16,1) + 542 x(16,2) + 499 x(16,3) + 455 x(16,4) + 1033 x(16,5)
       + 687 x(16,6) + 592 x(16,7) + 206 x(16,8) + 933 x(16,9) + 610 x(16,10)
       + 2248 x(16,11) + 417 x(16,12) + 406 x(16,13) + 449 x(16,14)
       + 636 x(16,15) + x(16,16) + 0 u(1) + 0 u(2) + 0 u(3) + 0 u(4) + 0 u(5)
       + 0 u(6) + 0 u(7) + 0 u(8) + 0 u(9) + 0 u(10) + 0 u(11) + 0 u(12)
       + 0 u(13) + 0 u(14) + 0 u(15) + 0 u(16)
Subject To
 in_degree(1):   x(1,1) + x(2,1) + x(3,1) + x(4,1) + x(5,1) + x(6,1) + x(7,1)
                 + x(8,1) + x(9,1) + x(10,1) + x(11,1) + x(12,1) + x(13,1)
                 + x(14,1) + x(15,1) + x(16,1)  = 1
 in_degree(2):   x(1,2) + x(2,2) + x(3,2) + x(4,2) + x(5,2) + x(6,2) + x(7,2)
                 + x(8,2) + x(9,2) + x(10,2) + x(11,2) + x(12,2) + x(13,2)
                 + x(14,2) + x(15,2) + x(16,2)  = 1
 in_degree(3):   x(1,3) + x(2,3) + x(3,3) + x(4,3) + x(5,3) + x(6,3) + x(7,3)
                 + x(8,3) + x(9,3) + x(10,3) + x(11,3) + x(12,3) + x(13,3)
                 + x(14,3) + x(15,3) + x(16,3)  = 1
 in_degree(4):   x(1,4) + x(2,4) + x(3,4) + x(4,4) + x(5,4) + x(6,4) + x(7,4)
                 + x(8,4) + x(9,4) + x(10,4) + x(11,4) + x(12,4) + x(13,4)
                 + x(14,4) + x(15,4) + x(16,4)  = 1
 in_degree(5):   x(1,5) + x(2,5) + x(3,5) + x(4,5) + x(5,5) + x(6,5) + x(7,5)
                 + x(8,5) + x(9,5) + x(10,5) + x(11,5) + x(12,5) + x(13,5)
                 + x(14,5) + x(15,5) + x(16,5)  = 1
 in_degree(6):   x(1,6) + x(2,6) + x(3,6) + x(4,6) + x(5,6) + x(6,6) + x(7,6)
                 + x(8,6) + x(9,6) + x(10,6) + x(11,6) + x(12,6) + x(13,6)
                 + x(14,6) + x(15,6) + x(16,6)  = 1
 in_degree(7):   x(1,7) + x(2,7) + x(3,7) + x(4,7) + x(5,7) + x(6,7) + x(7,7)
                 + x(8,7) + x(9,7) + x(10,7) + x(11,7) + x(12,7) + x(13,7)
                 + x(14,7) + x(15,7) + x(16,7)  = 1
 in_degree(8):   x(1,8) + x(2,8) + x(3,8) + x(4,8) + x(5,8) + x(6,8) + x(7,8)
                 + x(8,8) + x(9,8) + x(10,8) + x(11,8) + x(12,8) + x(13,8)
                 + x(14,8) + x(15,8) + x(16,8)  = 1
 in_degree(9):   x(1,9) + x(2,9) + x(3,9) + x(4,9) + x(5,9) + x(6,9) + x(7,9)
                 + x(8,9) + x(9,9) + x(10,9) + x(11,9) + x(12,9) + x(13,9)
                 + x(14,9) + x(15,9) + x(16,9)  = 1
 in_degree(10):  x(1,10) + x(2,10) + x(3,10) + x(4,10) + x(5,10) + x(6,10)
                 + x(7,10) + x(8,10) + x(9,10) + x(10,10) + x(11,10) + x(12,10)
                 + x(13,10) + x(14,10) + x(15,10) + x(16,10)  = 1
 in_degree(11):  x(1,11) + x(2,11) + x(3,11) + x(4,11) + x(5,11) + x(6,11)
                 + x(7,11) + x(8,11) + x(9,11) + x(10,11) + x(11,11) + x(12,11)
                 + x(13,11) + x(14,11) + x(15,11) + x(16,11)  = 1
 in_degree(12):  x(1,12) + x(2,12) + x(3,12) + x(4,12) + x(5,12) + x(6,12)
                 + x(7,12) + x(8,12) + x(9,12) + x(10,12) + x(11,12) + x(12,12)
                 + x(13,12) + x(14,12) + x(15,12) + x(16,12)  = 1
 in_degree(13):  x(1,13) + x(2,13) + x(3,13) + x(4,13) + x(5,13) + x(6,13)
                 + x(7,13) + x(8,13) + x(9,13) + x(10,13) + x(11,13) + x(12,13)
                 + x(13,13) + x(14,13) + x(15,13) + x(16,13)  = 1
 in_degree(14):  x(1,14) + x(2,14) + x(3,14) + x(4,14) + x(5,14) + x(6,14)
                 + x(7,14) + x(8,14) + x(9,14) + x(10,14) + x(11,14) + x(12,14)
                 + x(13,14) + x(14,14) + x(15,14) + x(16,14)  = 1
 in_degree(15):  x(1,15) + x(2,15) + x(3,15) + x(4,15) + x(5,15) + x(6,15)
                 + x(7,15) + x(8,15) + x(9,15) + x(10,15) + x(11,15) + x(12,15)
                 + x(13,15) + x(14,15) + x(15,15) + x(16,15)  = 1
 in_degree(16):  x(1,16) + x(2,16) + x(3,16) + x(4,16) + x(5,16) + x(6,16)
                 + x(7,16) + x(8,16) + x(9,16) + x(10,16) + x(11,16) + x(12,16)
                 + x(13,16) + x(14,16) + x(15,16) + x(16,16)  = 1
 out_degree(1):  x(1,1) + x(1,2) + x(1,3) + x(1,4) + x(1,5) + x(1,6) + x(1,7)
                 + x(1,8) + x(1,9) + x(1,10) + x(1,11) + x(1,12) + x(1,13)
                 + x(1,14) + x(1,15) + x(1,16)  = 1
 out_degree(2):  x(2,1) + x(2,2) + x(2,3) + x(2,4) + x(2,5) + x(2,6) + x(2,7)
                 + x(2,8) + x(2,9) + x(2,10) + x(2,11) + x(2,12) + x(2,13)
                 + x(2,14) + x(2,15) + x(2,16)  = 1
 out_degree(3):  x(3,1) + x(3,2) + x(3,3) + x(3,4) + x(3,5) + x(3,6) + x(3,7)
                 + x(3,8) + x(3,9) + x(3,10) + x(3,11) + x(3,12) + x(3,13)
                 + x(3,14) + x(3,15) + x(3,16)  = 1
 out_degree(4):  x(4,1) + x(4,2) + x(4,3) + x(4,4) + x(4,5) + x(4,6) + x(4,7)
                 + x(4,8) + x(4,9) + x(4,10) + x(4,11) + x(4,12) + x(4,13)
                 + x(4,14) + x(4,15) + x(4,16)  = 1
 out_degree(5):  x(5,1) + x(5,2) + x(5,3) + x(5,4) + x(5,5) + x(5,6) + x(5,7)
                 + x(5,8) + x(5,9) + x(5,10) + x(5,11) + x(5,12) + x(5,13)
                 + x(5,14) + x(5,15) + x(5,16)  = 1
 out_degree(6):  x(6,1) + x(6,2) + x(6,3) + x(6,4) + x(6,5) + x(6,6) + x(6,7)
                 + x(6,8) + x(6,9) + x(6,10) + x(6,11) + x(6,12) + x(6,13)
                 + x(6,14) + x(6,15) + x(6,16)  = 1
 out_degree(7):  x(7,1) + x(7,2) + x(7,3) + x(7,4) + x(7,5) + x(7,6) + x(7,7)
                 + x(7,8) + x(7,9) + x(7,10) + x(7,11) + x(7,12) + x(7,13)
                 + x(7,14) + x(7,15) + x(7,16)  = 1
 out_degree(8):  x(8,1) + x(8,2) + x(8,3) + x(8,4) + x(8,5) + x(8,6) + x(8,7)
                 + x(8,8) + x(8,9) + x(8,10) + x(8,11) + x(8,12) + x(8,13)
                 + x(8,14) + x(8,15) + x(8,16)  = 1
 out_degree(9):  x(9,1) + x(9,2) + x(9,3) + x(9,4) + x(9,5) + x(9,6) + x(9,7)
                 + x(9,8) + x(9,9) + x(9,10) + x(9,11) + x(9,12) + x(9,13)
                 + x(9,14) + x(9,15) + x(9,16)  = 1
 out_degree(10): x(10,1) + x(10,2) + x(10,3) + x(10,4) + x(10,5) + x(10,6)
                 + x(10,7) + x(10,8) + x(10,9) + x(10,10) + x(10,11) + x(10,12)
                 + x(10,13) + x(10,14) + x(10,15) + x(10,16)  = 1
 out_degree(11): x(11,1) + x(11,2) + x(11,3) + x(11,4) + x(11,5) + x(11,6)
                 + x(11,7) + x(11,8) + x(11,9) + x(11,10) + x(11,11) + x(11,12)
                 + x(11,13) + x(11,14) + x(11,15) + x(11,16)  = 1
 out_degree(12): x(12,1) + x(12,2) + x(12,3) + x(12,4) + x(12,5) + x(12,6)
                 + x(12,7) + x(12,8) + x(12,9) + x(12,10) + x(12,11) + x(12,12)
                 + x(12,13) + x(12,14) + x(12,15) + x(12,16)  = 1
 out_degree(13): x(13,1) + x(13,2) + x(13,3) + x(13,4) + x(13,5) + x(13,6)
                 + x(13,7) + x(13,8) + x(13,9) + x(13,10) + x(13,11) + x(13,12)
                 + x(13,13) + x(13,14) + x(13,15) + x(13,16)  = 1
 out_degree(14): x(14,1) + x(14,2) + x(14,3) + x(14,4) + x(14,5) + x(14,6)
                 + x(14,7) + x(14,8) + x(14,9) + x(14,10) + x(14,11) + x(14,12)
                 + x(14,13) + x(14,14) + x(14,15) + x(14,16)  = 1
 out_degree(15): x(15,1) + x(15,2) + x(15,3) + x(15,4) + x(15,5) + x(15,6)
                 + x(15,7) + x(15,8) + x(15,9) + x(15,10) + x(15,11) + x(15,12)
                 + x(15,13) + x(15,14) + x(15,15) + x(15,16)  = 1
 out_degree(16): x(16,1) + x(16,2) + x(16,3) + x(16,4) + x(16,5) + x(16,6)
                 + x(16,7) + x(16,8) + x(16,9) + x(16,10) + x(16,11) + x(16,12)
                 + x(16,13) + x(16,14) + x(16,15) + x(16,16)  = 1
Lazy Constraints
 u_consistency_for_arc_(2,3)#0:  u(2) - u(3) + 15 x(2,3) <= 14
 u_consistency_for_arc_(2,4)#1:  u(2) - u(4) + 15 x(2,4) <= 14
 u_consistency_for_arc_(2,5)#2:  u(2) - u(5) + 15 x(2,5) <= 14
 u_consistency_for_arc_(2,6)#3:  u(2) - u(6) + 15 x(2,6) <= 14
 u_consistency_for_arc_(2,7)#4:  u(2) - u(7) + 15 x(2,7) <= 14
 u_consistency_for_arc_(2,8)#5:  u(2) - u(8) + 15 x(2,8) <= 14
 u_consistency_for_arc_(2,9)#6:  u(2) - u(9) + 15 x(2,9) <= 14
 u_consistency_for_arc_(2,10)#7: u(2) - u(10) + 15 x(2,10) <= 14
 u_consistency_for_arc_(2,11)#8: u(2) - u(11) + 15 x(2,11) <= 14
 u_consistency_for_arc_(2,12)#9: u(2) - u(12) + 15 x(2,12) <= 14
 u_consistency_for_arc_(2,13)#10: u(2) - u(13) + 15 x(2,13) <= 14
 u_consistency_for_arc_(2,14)#11: u(2) - u(14) + 15 x(2,14) <= 14
 u_consistency_for_arc_(2,15)#12: u(2) - u(15) + 15 x(2,15) <= 14
 u_consistency_for_arc_(2,16)#13: u(2) - u(16) + 15 x(2,16) <= 14
 u_consistency_for_arc_(3,2)#14: u(3) - u(2) + 15 x(3,2) <= 14
 u_consistency_for_arc_(3,4)#15: u(3) - u(4) + 15 x(3,4) <= 14
 u_consistency_for_arc_(3,5)#16: u(3) - u(5) + 15 x(3,5) <= 14
 u_consistency_for_arc_(3,6)#17: u(3) - u(6) + 15 x(3,6) <= 14
 u_consistency_for_arc_(3,7)#18: u(3) - u(7) + 15 x(3,7) <= 14
 u_consistency_for_arc_(3,8)#19: u(3) - u(8) + 15 x(3,8) <= 14
 u_consistency_for_arc_(3,9)#20: u(3) - u(9) + 15 x(3,9) <= 14
 u_consistency_for_arc_(3,10)#21: u(3) - u(10) + 15 x(3,10) <= 14
 u_consistency_for_arc_(3,11)#22: u(3) - u(11) + 15 x(3,11) <= 14
 u_consistency_for_arc_(3,12)#23: u(3) - u(12) + 15 x(3,12) <= 14
 u_consistency_for_arc_(3,13)#24: u(3) - u(13) + 15 x(3,13) <= 14
 u_consistency_for_arc_(3,14)#25: u(3) - u(14) + 15 x(3,14) <= 14
 u_consistency_for_arc_(3,15)#26: u(3) - u(15) + 15 x(3,15) <= 14
 u_consistency_for_arc_(3,16)#27: u(3) - u(16) + 15 x(3,16) <= 14
 u_consistency_for_arc_(4,2)#28: u(4) - u(2) + 15 x(4,2) <= 14
 u_consistency_for_arc_(4,3)#29: u(4) - u(3) + 15 x(4,3) <= 14
 u_consistency_for_arc_(4,5)#30: u(4) - u(5) + 15 x(4,5) <= 14
 u_consistency_for_arc_(4,6)#31: u(4) - u(6) + 15 x(4,6) <= 14
 u_consistency_for_arc_(4,7)#32: u(4) - u(7) + 15 x(4,7) <= 14
 u_consistency_for_arc_(4,8)#33: u(4) - u(8) + 15 x(4,8) <= 14
 u_consistency_for_arc_(4,9)#34: u(4) - u(9) + 15 x(4,9) <= 14
 u_consistency_for_arc_(4,10)#35: u(4) - u(10) + 15 x(4,10) <= 14
 u_consistency_for_arc_(4,11)#36: u(4) - u(11) + 15 x(4,11) <= 14
 u_consistency_for_arc_(4,12)#37: u(4) - u(12) + 15 x(4,12) <= 14
 u_consistency_for_arc_(4,13)#38: u(4) - u(13) + 15 x(4,13) <= 14
 u_consistency_for_arc_(4,14)#39: u(4) - u(14) + 15 x(4,14) <= 14
 u_consistency_for_arc_(4,15)#40: u(4) - u(15) + 15 x(4,15) <= 14
 u_consistency_for_arc_(4,16)#41: u(4) - u(16) + 15 x(4,16) <= 14
 u_consistency_for_arc_(5,2)#42: u(5) - u(2) + 15 x(5,2) <= 14
 u_consistency_for_arc_(5,3)#43: u(5) - u(3) + 15 x(5,3) <= 14
 u_consistency_for_arc_(5,4)#44: u(5) - u(4) + 15 x(5,4) <= 14
 u_consistency_for_arc_(5,6)#45: u(5) - u(6) + 15 x(5,6) <= 14
 u_consistency_for_arc_(5,7)#46: u(5) - u(7) + 15 x(5,7) <= 14
 u_consistency_for_arc_(5,8)#47: u(5) - u(8) + 15 x(5,8) <= 14
 u_consistency_for_arc_(5,9)#48: u(5) - u(9) + 15 x(5,9) <= 14
 u_consistency_for_arc_(5,10)#49: u(5) - u(10) + 15 x(5,10) <= 14
 u_consistency_for_arc_(5,11)#50: u(5) - u(11) + 15 x(5,11) <= 14
 u_consistency_for_arc_(5,12)#51: u(5) - u(12) + 15 x(5,12) <= 14
 u_consistency_for_arc_(5,13)#52: u(5) - u(13) + 15 x(5,13) <= 14
 u_consistency_for_arc_(5,14)#53: u(5) - u(14) + 15 x(5,14) <= 14
 u_consistency_for_arc_(5,15)#54: u(5) - u(15) + 15 x(5,15) <= 14
 u_consistency_for_arc_(5,16)#55: u(5) - u(16) + 15 x(5,16) <= 14
 u_consistency_for_arc_(6,2)#56: u(6) - u(2) + 15 x(6,2) <= 14
 u_consistency_for_arc_(6,3)#57: u(6) - u(3) + 15 x(6,3) <= 14
 u_consistency_for_arc_(6,4)#58: u(6) - u(4) + 15 x(6,4) <= 14
 u_consistency_for_arc_(6,5)#59: u(6) - u(5) + 15 x(6,5) <= 14
 u_consistency_for_arc_(6,7)#60: u(6) - u(7) + 15 x(6,7) <= 14
 u_consistency_for_arc_(6,8)#61: u(6) - u(8) + 15 x(6,8) <= 14
 u_consistency_for_arc_(6,9)#62: u(6) - u(9) + 15 x(6,9) <= 14
 u_consistency_for_arc_(6,10)#63: u(6) - u(10) + 15 x(6,10) <= 14
 u_consistency_for_arc_(6,11)#64: u(6) - u(11) + 15 x(6,11) <= 14
 u_consistency_for_arc_(6,12)#65: u(6) - u(12) + 15 x(6,12) <= 14
 u_consistency_for_arc_(6,13)#66: u(6) - u(13) + 15 x(6,13) <= 14
 u_consistency_for_arc_(6,14)#67: u(6) - u(14) + 15 x(6,14) <= 14
 u_consistency_for_arc_(6,15)#68: u(6) - u(15) + 15 x(6,15) <= 14
 u_consistency_for_arc_(6,16)#69: u(6) - u(16) + 15 x(6,16) <= 14
 u_consistency_for_arc_(7,2)#70: u(7) - u(2) + 15 x(7,2) <= 14
 u_consistency_for_arc_(7,3)#71: u(7) - u(3) + 15 x(7,3) <= 14
 u_consistency_for_arc_(7,4)#72: u(7) - u(4) + 15 x(7,4) <= 14
 u_consistency_for_arc_(7,5)#73: u(7) - u(5) + 15 x(7,5) <= 14
 u_consistency_for_arc_(7,6)#74: u(7) - u(6) + 15 x(7,6) <= 14
 u_consistency_for_arc_(7,8)#75: u(7) - u(8) + 15 x(7,8) <= 14
 u_consistency_for_arc_(7,9)#76: u(7) - u(9) + 15 x(7,9) <= 14
 u_consistency_for_arc_(7,10)#77: u(7) - u(10) + 15 x(7,10) <= 14
 u_consistency_for_arc_(7,11)#78: u(7) - u(11) + 15 x(7,11) <= 14
 u_consistency_for_arc_(7,12)#79: u(7) - u(12) + 15 x(7,12) <= 14
 u_consistency_for_arc_(7,13)#80: u(7) - u(13) + 15 x(7,13) <= 14
 u_consistency_for_arc_(7,14)#81: u(7) - u(14) + 15 x(7,14) <= 14
 u_consistency_for_arc_(7,15)#82: u(7) - u(15) + 15 x(7,15) <= 14
 u_consistency_for_arc_(7,16)#83: u(7) - u(16) + 15 x(7,16) <= 14
 u_consistency_for_arc_(8,2)#84: u(8) - u(2) + 15 x(8,2) <= 14
 u_consistency_for_arc_(8,3)#85: u(8) - u(3) + 15 x(8,3) <= 14
 u_consistency_for_arc_(8,4)#86: u(8) - u(4) + 15 x(8,4) <= 14
 u_consistency_for_arc_(8,5)#87: u(8) - u(5) + 15 x(8,5) <= 14
 u_consistency_for_arc_(8,6)#88: u(8) - u(6) + 15 x(8,6) <= 14
 u_consistency_for_arc_(8,7)#89: u(8) - u(7) + 15 x(8,7) <= 14
 u_consistency_for_arc_(8,9)#90: u(8) - u(9) + 15 x(8,9) <= 14
 u_consistency_for_arc_(8,10)#91: u(8) - u(10) + 15 x(8,10) <= 14
 u_consistency_for_arc_(8,11)#92: u(8) - u(11) + 15 x(8,11) <= 14
 u_consistency_for_arc_(8,12)#93: u(8) - u(12) + 15 x(8,12) <= 14
 u_consistency_for_arc_(8,13)#94: u(8) - u(13) + 15 x(8,13) <= 14
 u_consistency_for_arc_(8,14)#95: u(8) - u(14) + 15 x(8,14) <= 14
 u_consistency_for_arc_(8,15)#96: u(8) - u(15) + 15 x(8,15) <= 14
 u_consistency_for_arc_(8,16)#97: u(8) - u(16) + 15 x(8,16) <= 14
 u_consistency_for_arc_(9,2)#98: u(9) - u(2) + 15 x(9,2) <= 14
 u_consistency_for_arc_(9,3)#99: u(9) - u(3) + 15 x(9,3) <= 14
 u_consistency_for_arc_(9,4)#100: u(9) - u(4) + 15 x(9,4) <= 14
 u_consistency_for_arc_(9,5)#101: u(9) - u(5) + 15 x(9,5) <= 14
 u_consistency_for_arc_(9,6)#102: u(9) - u(6) + 15 x(9,6) <= 14
 u_consistency_for_arc_(9,7)#103: u(9) - u(7) + 15 x(9,7) <= 14
 u_consistency_for_arc_(9,8)#104: u(9) - u(8) + 15 x(9,8) <= 14
 u_consistency_for_arc_(9,10)#105: u(9) - u(10) + 15 x(9,10) <= 14
 u_consistency_for_arc_(9,11)#106: u(9) - u(11) + 15 x(9,11) <= 14
 u_consistency_for_arc_(9,12)#107: u(9) - u(12) + 15 x(9,12) <= 14
 u_consistency_for_arc_(9,13)#108: u(9) - u(13) + 15 x(9,13) <= 14
 u_consistency_for_arc_(9,14)#109: u(9) - u(14) + 15 x(9,14) <= 14
 u_consistency_for_arc_(9,15)#110: u(9) - u(15) + 15 x(9,15) <= 14
 u_consistency_for_arc_(9,16)#111: u(9) - u(16) + 15 x(9,16) <= 14
 u_consistency_for_arc_(10,2)#112: u(10) - u(2) + 15 x(10,2) <= 14
 u_consistency_for_arc_(10,3)#113: u(10) - u(3) + 15 x(10,3) <= 14
 u_consistency_for_arc_(10,4)#114: u(10) - u(4) + 15 x(10,4) <= 14
 u_consistency_for_arc_(10,5)#115: u(10) - u(5) + 15 x(10,5) <= 14
 u_consistency_for_arc_(10,6)#116: u(10) - u(6) + 15 x(10,6) <= 14
 u_consistency_for_arc_(10,7)#117: u(10) - u(7) + 15 x(10,7) <= 14
 u_consistency_for_arc_(10,8)#118: u(10) - u(8) + 15 x(10,8) <= 14
 u_consistency_for_arc_(10,9)#119: u(10) - u(9) + 15 x(10,9) <= 14
 u_consistency_for_arc_(10,11)#120: u(10) - u(11) + 15 x(10,11) <= 14
 u_consistency_for_arc_(10,12)#121: u(10) - u(12) + 15 x(10,12) <= 14
 u_consistency_for_arc_(10,13)#122: u(10) - u(13) + 15 x(10,13) <= 14
 u_consistency_for_arc_(10,14)#123: u(10) - u(14) + 15 x(10,14) <= 14
 u_consistency_for_arc_(10,15)#124: u(10) - u(15) + 15 x(10,15) <= 14
 u_consistency_for_arc_(10,16)#125: u(10) - u(16) + 15 x(10,16) <= 14
 u_consistency_for_arc_(11,2)#126: u(11) - u(2) + 15 x(11,2) <= 14
 u_consistency_for_arc_(11,3)#127: u(11) - u(3) + 15 x(11,3) <= 14
 u_consistency_for_arc_(11,4)#128: u(11) - u(4) + 15 x(11,4) <= 14
 u_consistency_for_arc_(11,5)#129: u(11) - u(5) + 15 x(11,5) <= 14
 u_consistency_for_arc_(11,6)#130: u(11) - u(6) + 15 x(11,6) <= 14
 u_consistency_for_arc_(11,7)#131: u(11) - u(7) + 15 x(11,7) <= 14
 u_consistency_for_arc_(11,8)#132: u(11) - u(8) + 15 x(11,8) <= 14
 u_consistency_for_arc_(11,9)#133: u(11) - u(9) + 15 x(11,9) <= 14
 u_consistency_for_arc_(11,10)#134: u(11) - u(10) + 15 x(11,10) <= 14
 u_consistency_for_arc_(11,12)#135: u(11) - u(12) + 15 x(11,12) <= 14
 u_consistency_for_arc_(11,13)#136: u(11) - u(13) + 15 x(11,13) <= 14
 u_consistency_for_arc_(11,14)#137: u(11) - u(14) + 15 x(11,14) <= 14
 u_consistency_for_arc_(11,15)#138: u(11) - u(15) + 15 x(11,15) <= 14
 u_consistency_for_arc_(11,16)#139: u(11) - u(16) + 15 x(11,16) <= 14
 u_consistency_for_arc_(12,2)#140: u(12) - u(2) + 15 x(12,2) <= 14
 u_consistency_for_arc_(12,3)#141: u(12) - u(3) + 15 x(12,3) <= 14
 u_consistency_for_arc_(12,4)#142: u(12) - u(4) + 15 x(12,4) <= 14
 u_consistency_for_arc_(12,5)#143: u(12) - u(5) + 15 x(12,5) <= 14
 u_consistency_for_arc_(12,6)#144: u(12) - u(6) + 15 x(12,6) <= 14
 u_consistency_for_arc_(12,7)#145: u(12) - u(7) + 15 x(12,7) <= 14
 u_consistency_for_arc_(12,8)#146: u(12) - u(8) + 15 x(12,8) <= 14
 u_consistency_for_arc_(12,9)#147: u(12) - u(9) + 15 x(12,9) <= 14
 u_consistency_for_arc_(12,10)#148: u(12) - u(10) + 15 x(12,10) <= 14
 u_consistency_for_arc_(12,11)#149: u(12) - u(11) + 15 x(12,11) <= 14
 u_consistency_for_arc_(12,13)#150: u(12) - u(13) + 15 x(12,13) <= 14
 u_consistency_for_arc_(12,14)#151: u(12) - u(14) + 15 x(12,14) <= 14
 u_consistency_for_arc_(12,15)#152: u(12) - u(15) + 15 x(12,15) <= 14
 u_consistency_for_arc_(12,16)#153: u(12) - u(16) + 15 x(12,16) <= 14
 u_consistency_for_arc_(13,2)#154: u(13) - u(2) + 15 x(13,2) <= 14
 u_consistency_for_arc_(13,3)#155: u(13) - u(3) + 15 x(13,3) <= 14
 u_consistency_for_arc_(13,4)#156: u(13) - u(4) + 15 x(13,4) <= 14
 u_consistency_for_arc_(13,5)#157: u(13) - u(5) + 15 x(13,5) <= 14
 u_consistency_for_arc_(13,6)#158: u(13) - u(6) + 15 x(13,6) <= 14
 u_consistency_for_arc_(13,7)#159: u(13) - u(7) + 15 x(13,7) <= 14
 u_consistency_for_arc_(13,8)#160: u(13) - u(8) + 15 x(13,8) <= 14
 u_consistency_for_arc_(13,9)#161: u(13) - u(9) + 15 x(13,9) <= 14
 u_consistency_for_arc_(13,10)#162: u(13) - u(10) + 15 x(13,10) <= 14
 u_consistency_for_arc_(13,11)#163: u(13) - u(11) + 15 x(13,11) <= 14
 u_consistency_for_arc_(13,12)#164: u(13) - u(12) + 15 x(13,12) <= 14
 u_consistency_for_arc_(13,14)#165: u(13) - u(14) + 15 x(13,14) <= 14
 u_consistency_for_arc_(13,15)#166: u(13) - u(15) + 15 x(13,15) <= 14
 u_consistency_for_arc_(13,16)#167: u(13) - u(16) + 15 x(13,16) <= 14
 u_consistency_for_arc_(14,2)#168: u(14) - u(2) + 15 x(14,2) <= 14
 u_consistency_for_arc_(14,3)#169: u(14) - u(3) + 15 x(14,3) <= 14
 u_consistency_for_arc_(14,4)#170: u(14) - u(4) + 15 x(14,4) <= 14
 u_consistency_for_arc_(14,5)#171: u(14) - u(5) + 15 x(14,5) <= 14
 u_consistency_for_arc_(14,6)#172: u(14) - u(6) + 15 x(14,6) <= 14
 u_consistency_for_arc_(14,7)#173: u(14) - u(7) + 15 x(14,7) <= 14
 u_consistency_for_arc_(14,8)#174: u(14) - u(8) + 15 x(14,8) <= 14
 u_consistency_for_arc_(14,9)#175: u(14) - u(9) + 15 x(14,9) <= 14
 u_consistency_for_arc_(14,10)#176: u(14) - u(10) + 15 x(14,10) <= 14
 u_consistency_for_arc_(14,11)#177: u(14) - u(11) + 15 x(14,11) <= 14
 u_consistency_for_arc_(14,12)#178: u(14) - u(12) + 15 x(14,12) <= 14
 u_consistency_for_arc_(14,13)#179: u(14) - u(13) + 15 x(14,13) <= 14
 u_consistency_for_arc_(14,15)#180: u(14) - u(15) + 15 x(14,15) <= 14
 u_consistency_for_arc_(14,16)#181: u(14) - u(16) + 15 x(14,16) <= 14
 u_consistency_for_arc_(15,2)#182: u(15) - u(2) + 15 x(15,2) <= 14
 u_consistency_for_arc_(15,3)#183: u(15) - u(3) + 15 x(15,3) <= 14
 u_consistency_for_arc_(15,4)#184: u(15) - u(4) + 15 x(15,4) <= 14
 u_consistency_for_arc_(15,5)#185: u(15) - u(5) + 15 x(15,5) <= 14
 u_consistency_for_arc_(15,6)#186: u(15) - u(6) + 15 x(15,6) <= 14
 u_consistency_for_arc_(15,7)#187: u(15) - u(7) + 15 x(15,7) <= 14
 u_consistency_for_arc_(15,8)#188: u(15) - u(8) + 15 x(15,8) <= 14
 u_consistency_for_arc_(15,9)#189: u(15) - u(9) + 15 x(15,9) <= 14
 u_consistency_for_arc_(15,10)#190: u(15) - u(10) + 15 x(15,10) <= 14
 u_consistency_for_arc_(15,11)#191: u(15) - u(11) + 15 x(15,11) <= 14
 u_consistency_for_arc_(15,12)#192: u(15) - u(12) + 15 x(15,12) <= 14
 u_consistency_for_arc_(15,13)#193: u(15) - u(13) + 15 x(15,13) <= 14
 u_consistency_for_arc_(15,14)#194: u(15) - u(14) + 15 x(15,14) <= 14
 u_consistency_for_arc_(15,16)#195: u(15) - u(16) + 15 x(15,16) <= 14
 u_consistency_for_arc_(16,2)#196: u(16) - u(2) + 15 x(16,2) <= 14
 u_consistency_for_arc_(16,3)#197: u(16) - u(3) + 15 x(16,3) <= 14
 u_consistency_for_arc_(16,4)#198: u(16) - u(4) + 15 x(16,4) <= 14
 u_consistency_for_arc_(16,5)#199: u(16) - u(5) + 15 x(16,5) <= 14
 u_consistency_for_arc_(16,6)#200: u(16) - u(6) + 15 x(16,6) <= 14
 u_consistency_for_arc_(16,7)#201: u(16) - u(7) + 15 x(16,7) <= 14
 u_consistency_for_arc_(16,8)#202: u(16) - u(8) + 15 x(16,8) <= 14
 u_consistency_for_arc_(16,9)#203: u(16) - u(9) + 15 x(16,9) <= 14
 u_consistency_for_arc_(16,10)#204: u(16) - u(10) + 15 x(16,10) <= 14
 u_consistency_for_arc_(16,11)#205: u(16) - u(11) + 15 x(16,11) <= 14
 u_consistency_for_arc_(16,12)#206: u(16) - u(12) + 15 x(16,12) <= 14
 u_consistency_for_arc_(16,13)#207: u(16) - u(13) + 15 x(16,13) <= 14
 u_consistency_for_arc_(16,14)#208: u(16) - u(14) + 15 x(16,14) <= 14
 u_consistency_for_arc_(16,15)#209: u(16) - u(15) + 15 x(16,15) <= 14
Bounds
      x(1,1) = 0
 0 <= x(1,2) <= 1
 0 <= x(1,3) <= 1
 0 <= x(1,4) <= 1
 0 <= x(1,5) <= 1
 0 <= x(1,6) <= 1
 0 <= x(1,7) <= 1
 0 <= x(1,8) <= 1
 0 <= x(1,9) <= 1
 0 <= x(1,10) <= 1
 0 <= x(1,11) <= 1
 0 <= x(1,12) <= 1
 0 <= x(1,13) <= 1
 0 <= x(1,14) <= 1
 0 <= x(1,15) <= 1
 0 <= x(1,16) <= 1
 0 <= x(2,1) <= 1
      x(2,2) = 0
 0 <= x(2,3) <= 1
 0 <= x(2,4) <= 1
 0 <= x(2,5) <= 1
 0 <= x(2,6) <= 1
 0 <= x(2,7) <= 1
 0 <= x(2,8) <= 1
 0 <= x(2,9) <= 1
 0 <= x(2,10) <= 1
 0 <= x(2,11) <= 1
 0 <= x(2,12) <= 1
 0 <= x(2,13) <= 1
 0 <= x(2,14) <= 1
 0 <= x(2,15) <= 1
 0 <= x(2,16) <= 1
 0 <= x(3,1) <= 1
 0 <= x(3,2) <= 1
      x(3,3) = 0
 0 <= x(3,4) <= 1
 0 <= x(3,5) <= 1
 0 <= x(3,6) <= 1
 0 <= x(3,7) <= 1
 0 <= x(3,8) <= 1
 0 <= x(3,9) <= 1
 0 <= x(3,10) <= 1
 0 <= x(3,11) <= 1
 0 <= x(3,12) <= 1
 0 <= x(3,13) <= 1
 0 <= x(3,14) <= 1
 0 <= x(3,15) <= 1
 0 <= x(3,16) <= 1
 0 <= x(4,1) <= 1
 0 <= x(4,2) <= 1
 0 <= x(4,3) <= 1
      x(4,4) = 0
 0 <= x(4,5) <= 1
 0 <= x(4,6) <= 1
 0 <= x(4,7) <= 1
 0 <= x(4,8) <= 1
 0 <= x(4,9) <= 1
 0 <= x(4,10) <= 1
 0 <= x(4,11) <= 1
 0 <= x(4,12) <= 1
 0 <= x(4,13) <= 1
 0 <= x(4,14) <= 1
 0 <= x(4,15) <= 1
 0 <= x(4,16) <= 1
 0 <= x(5,1) <= 1
 0 <= x(5,2) <= 1
 0 <= x(5,3) <= 1
 0 <= x(5,4) <= 1
      x(5,5) = 0
 0 <= x(5,6) <= 1
 0 <= x(5,7) <= 1
 0 <= x(5,8) <= 1
 0 <= x(5,9) <= 1
 0 <= x(5,10) <= 1
 0 <= x(5,11) <= 1
 0 <= x(5,12) <= 1
 0 <= x(5,13) <= 1
 0 <= x(5,14) <= 1
 0 <= x(5,15) <= 1
 0 <= x(5,16) <= 1
 0 <= x(6,1) <= 1
 0 <= x(6,2) <= 1
 0 <= x(6,3) <= 1
 0 <= x(6,4) <= 1
 0 <= x(6,5) <= 1
      x(6,6) = 0
 0 <= x(6,7) <= 1
 0 <= x(6,8) <= 1
 0 <= x(6,9) <= 1
 0 <= x(6,10) <= 1
 0 <= x(6,11) <= 1
 0 <= x(6,12) <= 1
 0 <= x(6,13) <= 1
 0 <= x(6,14) <= 1
 0 <= x(6,15) <= 1
 0 <= x(6,16) <= 1
 0 <= x(7,1) <= 1
 0 <= x(7,2) <= 1
 0 <= x(7,3) <= 1
 0 <= x(7,4) <= 1
 0 <= x(7,5) <= 1
 0 <= x(7,6) <= 1
      x(7,7) = 0
 0 <= x(7,8) <= 1
 0 <= x(7,9) <= 1
 0 <= x(7,10) <= 1
 0 <= x(7,11) <= 1
 0 <= x(7,12) <= 1
 0 <= x(7,13) <= 1
 0 <= x(7,14) <= 1
 0 <= x(7,15) <= 1
 0 <= x(7,16) <= 1
 0 <= x(8,1) <= 1
 0 <= x(8,2) <= 1
 0 <= x(8,3) <= 1
 0 <= x(8,4) <= 1
 0 <= x(8,5) <= 1
 0 <= x(8,6) <= 1
 0 <= x(8,7) <= 1
      x(8,8) = 0
 0 <= x(8,9) <= 1
 0 <= x(8,10) <= 1
 0 <= x(8,11) <= 1
 0 <= x(8,12) <= 1
 0 <= x(8,13) <= 1
 0 <= x(8,14) <= 1
 0 <= x(8,15) <= 1
 0 <= x(8,16) <= 1
 0 <= x(9,1) <= 1
 0 <= x(9,2) <= 1
 0 <= x(9,3) <= 1
 0 <= x(9,4) <= 1
 0 <= x(9,5) <= 1
 0 <= x(9,6) <= 1
 0 <= x(9,7) <= 1
 0 <= x(9,8) <= 1
      x(9,9) = 0
 0 <= x(9,10) <= 1
 0 <= x(9,11) <= 1
 0 <= x(9,12) <= 1
 0 <= x(9,13) <= 1
 0 <= x(9,14) <= 1
 0 <= x(9,15) <= 1
 0 <= x(9,16) <= 1
 0 <= x(10,1) <= 1
 0 <= x(10,2) <= 1
 0 <= x(10,3) <= 1
 0 <= x(10,4) <= 1
 0 <= x(10,5) <= 1
 0 <= x(10,6) <= 1
 0 <= x(10,7) <= 1
 0 <= x(10,8) <= 1
 0 <= x(10,9) <= 1
      x(10,10) = 0
 0 <= x(10,11) <= 1
 0 <= x(10,12) <= 1
 0 <= x(10,13) <= 1
 0 <= x(10,14) <= 1
 0 <= x(10,15) <= 1
 0 <= x(10,16) <= 1
 0 <= x(11,1) <= 1
 0 <= x(11,2) <= 1
 0 <= x(11,3) <= 1
 0 <= x(11,4) <= 1
 0 <= x(11,5) <= 1
 0 <= x(11,6) <= 1
 0 <= x(11,7) <= 1
 0 <= x(11,8) <= 1
 0 <= x(11,9) <= 1
 0 <= x(11,10) <= 1
      x(11,11) = 0
 0 <= x(11,12) <= 1
 0 <= x(11,13) <= 1
 0 <= x(11,14) <= 1
 0 <= x(11,15) <= 1
 0 <= x(11,16) <= 1
 0 <= x(12,1) <= 1
 0 <= x(12,2) <= 1
 0 <= x(12,3) <= 1
 0 <= x(12,4) <= 1
 0 <= x(12,5) <= 1
 0 <= x(12,6) <= 1
 0 <= x(12,7) <= 1
 0 <= x(12,8) <= 1
 0 <= x(12,9) <= 1
 0 <= x(12,10) <= 1
 0 <= x(12,11) <= 1
      x(12,12) = 0
 0 <= x(12,13) <= 1
 0 <= x(12,14) <= 1
 0 <= x(12,15) <= 1
 0 <= x(12,16) <= 1
 0 <= x(13,1) <= 1
 0 <= x(13,2) <= 1
 0 <= x(13,3) <= 1
 0 <= x(13,4) <= 1
 0 <= x(13,5) <= 1
 0 <= x(13,6) <= 1
 0 <= x(13,7) <= 1
 0 <= x(13,8) <= 1
 0 <= x(13,9) <= 1
 0 <= x(13,10) <= 1
 0 <= x(13,11) <= 1
 0 <= x(13,12) <= 1
      x(13,13) = 0
 0 <= x(13,14) <= 1
 0 <= x(13,15) <= 1
 0 <= x(13,16) <= 1
 0 <= x(14,1) <= 1
 0 <= x(14,2) <= 1
 0 <= x(14,3) <= 1
 0 <= x(14,4) <= 1
 0 <= x(14,5) <= 1
 0 <= x(14,6) <= 1
 0 <= x(14,7) <= 1
 0 <= x(14,8) <= 1
 0 <= x(14,9) <= 1
 0 <= x(14,10) <= 1
 0 <= x(14,11) <= 1
 0 <= x(14,12) <= 1
 0 <= x(14,13) <= 1
      x(14,14) = 0
 0 <= x(14,15) <= 1
 0 <= x(14,16) <= 1
 0 <= x(15,1) <= 1
 0 <= x(15,2) <= 1
 0 <= x(15,3) <= 1
 0 <= x(15,4) <= 1
 0 <= x(15,5) <= 1
 0 <= x(15,6) <= 1
 0 <= x(15,7) <= 1
 0 <= x(15,8) <= 1
 0 <= x(15,9) <= 1
 0 <= x(15,10) <= 1
 0 <= x(15,11) <= 1
 0 <= x(15,12) <= 1
 0 <= x(15,13) <= 1
 0 <= x(15,14) <= 1
      x(15,15) = 0
 0 <= x(15,16) <= 1
 0 <= x(16,1) <= 1
 0 <= x(16,2) <= 1
 0 <= x(16,3) <= 1
 0 <= x(16,4) <= 1
 0 <= x(16,5) <= 1
 0 <= x(16,6) <= 1
 0 <= x(16,7) <= 1
 0 <= x(16,8) <= 1
 0 <= x(16,9) <= 1
 0 <= x(16,10) <= 1
 0 <= x(16,11) <= 1
 0 <= x(16,12) <= 1
 0 <= x(16,13) <= 1
 0 <= x(16,14) <= 1
 0 <= x(16,15) <= 1
      x(16,16) = 0
      u(1) = 0
 0 <= u(2) <= 15
 0 <= u(3) <= 15
 0 <= u(4) <= 15
 0 <= u(5) <= 15
 0 <= u(6) <= 15
 0 <= u(7) <= 15
 0 <= u(8) <= 15
 0 <= u(9) <= 15
 0 <= u(10) <= 15
 0 <= u(11) <= 15
 0 <= u(12) <= 15
 0 <= u(13) <= 15
 0 <= u(14) <= 15
 0 <= u(15) <= 15
 0 <= u(16) <= 15
Binaries
 x(1,1)  x(1,2)  x(1,3)  x(1,4)  x(1,5)  x(1,6)  x(1,7)  x(1,8)  x(1,9) 
 x(1,10)  x(1,11)  x(1,12)  x(1,13)  x(1,14)  x(1,15)  x(1,16)  x(2,1)  x(2,2) 
 x(2,3)  x(2,4)  x(2,5)  x(2,6)  x(2,7)  x(2,8)  x(2,9)  x(2,10)  x(2,11) 
 x(2,12)  x(2,13)  x(2,14)  x(2,15)  x(2,16)  x(3,1)  x(3,2)  x(3,3)  x(3,4) 
 x(3,5)  x(3,6)  x(3,7)  x(3,8)  x(3,9)  x(3,10)  x(3,11)  x(3,12)  x(3,13) 
 x(3,14)  x(3,15)  x(3,16)  x(4,1)  x(4,2)  x(4,3)  x(4,4)  x(4,5)  x(4,6) 
 x(4,7)  x(4,8)  x(4,9)  x(4,10)  x(4,11)  x(4,12)  x(4,13)  x(4,14)  x(4,15) 
 x(4,16)  x(5,1)  x(5,2)  x(5,3)  x(5,4)  x(5,5)  x(5,6)  x(5,7)  x(5,8) 
 x(5,9)  x(5,10)  x(5,11)  x(5,12)  x(5,13)  x(5,14)  x(5,15)  x(5,16)  x(6,1) 
 x(6,2)  x(6,3)  x(6,4)  x(6,5)  x(6,6)  x(6,7)  x(6,8)  x(6,9)  x(6,10) 
 x(6,11)  x(6,12)  x(6,13)  x(6,14)  x(6,15)  x(6,16)  x(7,1)  x(7,2)  x(7,3) 
 x(7,4)  x(7,5)  x(7,6)  x(7,7)  x(7,8)  x(7,9)  x(7,10)  x(7,11)  x(7,12) 
 x(7,13)  x(7,14)  x(7,15)  x(7,16)  x(8,1)  x(8,2)  x(8,3)  x(8,4)  x(8,5) 
 x(8,6)  x(8,7)  x(8,8)  x(8,9)  x(8,10)  x(8,11)  x(8,12)  x(8,13)  x(8,14) 
 x(8,15)  x(8,16)  x(9,1)  x(9,2)  x(9,3)  x(9,4)  x(9,5)  x(9,6)  x(9,7) 
 x(9,8)  x(9,9)  x(9,10)  x(9,11)  x(9,12)  x(9,13)  x(9,14)  x(9,15)  x(9,16) 
 x(10,1)  x(10,2)  x(10,3)  x(10,4)  x(10,5)  x(10,6)  x(10,7)  x(10,8) 
 x(10,9)  x(10,10)  x(10,11)  x(10,12)  x(10,13)  x(10,14)  x(10,15)  x(10,16) 
 x(11,1)  x(11,2)  x(11,3)  x(11,4)  x(11,5)  x(11,6)  x(11,7)  x(11,8) 
 x(11,9)  x(11,10)  x(11,11)  x(11,12)  x(11,13)  x(11,14)  x(11,15)  x(11,16) 
 x(12,1)  x(12,2)  x(12,3)  x(12,4)  x(12,5)  x(12,6)  x(12,7)  x(12,8) 
 x(12,9)  x(12,10)  x(12,11)  x(12,12)  x(12,13)  x(12,14)  x(12,15)  x(12,16) 
 x(13,1)  x(13,2)  x(13,3)  x(13,4)  x(13,5)  x(13,6)  x(13,7)  x(13,8) 
 x(13,9)  x(13,10)  x(13,11)  x(13,12)  x(13,13)  x(13,14)  x(13,15)  x(13,16) 
 x(14,1)  x(14,2)  x(14,3)  x(14,4)  x(14,5)  x(14,6)  x(14,7)  x(14,8) 
 x(14,9)  x(14,10)  x(14,11)  x(14,12)  x(14,13)  x(14,14)  x(14,15)  x(14,16) 
 x(15,1)  x(15,2)  x(15,3)  x(15,4)  x(15,5)  x(15,6)  x(15,7)  x(15,8) 
 x(15,9)  x(15,10)  x(15,11)  x(15,12)  x(15,13)  x(15,14)  x(15,15)  x(15,16) 
 x(16,1)  x(16,2)  x(16,3)  x(16,4)  x(16,5)  x(16,6)  x(16,7)  x(16,8) 
 x(16,9)  x(16,10)  x(16,11)  x(16,12)  x(16,13)  x(16,14)  x(16,15)  x(16,16) 
Generals
 u(1)  u(2)  u(3)  u(4)  u(5)  u(6)  u(7)  u(8)  u(9)  u(10)  u(11)  u(12) 
 u(13)  u(14)  u(15)  u(16) 
End
